Version identifier: 20.1.0.0 | 2020-11-10 | 9bedb6d68
CPXPARAM_Threads                                 1
CPXPARAM_TimeLimit                               100
Generic callback                                 0xfe
Tried aggregator 1 time.
MIP Presolve eliminated 4 rows and 10 columns.
MIP Presolve modified 8 coefficients.
Reduced MIP has 158 rows, 1623 columns, and 4705 nonzeros.
Reduced MIP has 1622 binaries, 0 generals, 0 SOSs, and 0 indicators.
Presolve time = 0.00 sec. (1.58 ticks)
Probing time = 0.00 sec. (2.44 ticks)
Tried aggregator 1 time.
Reduced MIP has 158 rows, 1623 columns, and 4705 nonzeros.
Reduced MIP has 1622 binaries, 0 generals, 0 SOSs, and 0 indicators.
Presolve time = 0.00 sec. (1.53 ticks)
Probing time = 0.00 sec. (2.43 ticks)
Clique table members: 1181.
MIP emphasis: balance optimality and feasibility.
MIP search method: dynamic search.
Parallel mode: none, using 1 thread.
Root relaxation solution time = 0.00 sec. (0.68 ticks)

        Nodes                                         Cuts/
   Node  Left     Objective  IInf  Best Integer    Best Bound    ItCnt     Gap

      0     0     8818.0000    10                      0.0000        3         
*     0+    0                        10857.0600     8818.0000            18.78%

Repeating presolve.
Tried aggregator 2 times.
MIP Presolve eliminated 102 rows and 1445 columns.
Aggregator did 8 substitutions.
Reduced MIP has 48 rows, 170 columns, and 459 nonzeros.
Reduced MIP has 169 binaries, 0 generals, 0 SOSs, and 0 indicators.
Presolve time = 0.00 sec. (0.78 ticks)
Probing time = 0.00 sec. (0.54 ticks)
Tried aggregator 1 time.
Reduced MIP has 48 rows, 170 columns, and 459 nonzeros.
Reduced MIP has 169 binaries, 0 generals, 0 SOSs, and 0 indicators.
Presolve time = 0.00 sec. (0.21 ticks)
Represolve time = 0.00 sec. (2.26 ticks)
Probing time = 0.00 sec. (0.54 ticks)
Clique table members: 372.
MIP emphasis: balance optimality and feasibility.
MIP search method: dynamic search.
Parallel mode: none, using 1 thread.
Root relaxation solution time = 0.00 sec. (0.72 ticks)

        Nodes                                         Cuts/
   Node  Left     Objective  IInf  Best Integer    Best Bound    ItCnt     Gap

*     0+    0                        10857.0600     8818.0000            18.78%
      0     0     9064.3227    20    10857.0600     9064.3227       71   16.51%
      0     0     9318.1190     2    10857.0600      Fract: 2      110   14.17%
      0     0     9372.6600    10    10857.0600      Fract: 1      115   13.67%
      0     2     9372.6600    25    10857.0600     9372.6600      115   13.67%
Elapsed time = 1.44 sec. (74.20 ticks, tree = 0.01 MB, solutions = 1)

Gomory fractional cuts applied:  3
User cuts applied:  123

Root node processing (before b&c):
  Real time             =    1.44 sec. (74.26 ticks)
Sequential b&c:
  Real time             =    0.47 sec. (125.27 ticks)
                          ------------
Total (root+branch&cut) =    1.91 sec. (199.53 ticks)
SOLUTION ADMISSIBLE TROUVEE 10857.06 10857.06 123.0 123.0
